************************************************************************
file with basedata            : n/a
initial value random generator: n/a
************************************************************************
projects                      :  1
jobs (incl. supersource/sink ):  32
horizon                       :  159
RESOURCES
  - renewable                 :  4   R
  - nonrenewable              :  0   N
  - doubly constrained        :  0   D
************************************************************************
PROJECT INFORMATION:
pronr.  #jobs rel.date duedate tardcost  MPM-Time
    1     30      0       44        6       44
************************************************************************
PRECEDENCE RELATIONS:
jobnr.    #modes  #successors   successors
   1        1          3           2   3   4
   2        1          3           5   9  15
   3        1          2           8  10
   4        1          3           6   7  22
   5        1          3          16  18  26
   6        1          1          24
   7        1          3          13  14  17
   8        1          2          11  25
   9        1          1          12
  10        1          1          18
  11        1          1          19
  12        1          2          20  31
  13        1          1          25
  14        1          2          15  19
  15        1          2          23  29
  16        1          1          24
  17        1          1          29
  18        1          1          27
  19        1          2          21  30
  20        1          1          24
  21        1          2          27  28
  22        1          1          26
  23        1          1          30
  24        1          1          27
  25        1          1          30
  26        1          1          28
  27        1          1          29
  28        1          1          31
  29        1          1          32
  30        1          1          32
  31        1          1          32
  32        1          0        
************************************************************************
REQUESTS/DURATIONS:
jobnr. mode duration  R 1  R 2  R 3  R 4
------------------------------------------------------------------------
  1      1     0    
  2      1     7       3   3   3   3   3   3   3
                       8   8   8   8   8   8   8
                       4   4   4   4   4   4   4
                       4   4   4   4   4   4   4
  3      1    10       5   9   9   9   5   5   9   9   9   5
                       5   9   9   9   5   5   9   9   9   5
                       5   9   9   9   5   5   9   9   9   5
                       4   8   8   8   4   4   8   8   8   4
  4      1     7       9   9   9   9   9   9   9
                       4   4   4   4   4   4   4
                       4   4   4   4   4   4   4
                       2   2   2   2   2   2   2
  5      1     9       3   3   3   3   3   3   3   3   3
                       1   1   1   1   1   1   1   1   1
                       8   8   8   8   8   8   8   8   8
                       1   1   1   1   1   1   1   1   1
  6      1     2       4   4
                       9   9
                       9   9
                       6   6
  7      1     3       7   7   7
                       4   4   4
                       9   9   9
                       6   6   6
  8      1     8       7   7   7   7   7   7   7   7
                       1   1   1   1   1   1   1   1
                       5   5   5   5   5   5   5   5
                       9   9   9   9   9   9   9   9
  9      1     2       2   2
                       6   6
                       2   2
                       5   5
 10      1     3       7   7   7
                      10  10  10
                       8   8   8
                       7   7   7
 11      1     6       3   3   3   3   3   2
                       9   9   9   9   9   5
                       7   7   7   7   7   4
                       1   1   1   1   1   1
 12      1     8      10  10  10  10  10   5  10  10
                       6   6   6   6   6   3   6   6
                       9   9   9   9   9   5   9   9
                      10  10  10  10  10   5  10  10
 13      1     9       2   2   2   2   2   2   2   2   2
                      10  10  10  10  10  10  10  10  10
                       9   9   9   9   9   9   9   9   9
                       8   8   8   8   8   8   8   8   8
 14      1     2       7   7
                       5   5
                       5   5
                       4   4
 15      1     3       4   4   4
                       8   8   8
                       6   6   6
                       2   2   2
 16      1     8       1   1   1   1   1   1   1   1
                       6   6   6   6   6   6   6   6
                       2   2   2   2   2   2   2   2
                       8   8   8   8   8   8   8   8
 17      1     6      10  10  10  10  10  10
                       5   5   5   5   5   5
                       9   9   9   9   9   9
                       2   2   2   2   2   2
 18      1     9       1   1   1   1   1   1   1   1   1
                       8   8   8   8   8   8   8   8   8
                       3   3   3   3   3   3   3   3   3
                       6   6   6   6   6   6   6   6   6
 19      1     8       7   7   7   7   7   7   7   7
                       6   6   6   6   6   6   6   6
                       5   5   5   5   5   5   5   5
                       2   2   2   2   2   2   2   2
 20      1     1       3
                       4
                       3
                       4
 21      1     2       9   9
                       1   1
                       9   9
                       7   7
 22      1     7       5   9   9   9   9   9   9
                       1   1   1   1   1   1   1
                       4   8   8   8   8   8   8
                       3   6   6   6   6   6   6
 23      1    10       6   6   6   6   6   6   6   6   6   6
                       6   6   6   6   6   6   6   6   6   6
                       8   8   8   8   8   8   8   8   8   8
                       5   5   5   5   5   5   5   5   5   5
 24      1     1       3
                       8
                       1
                       3
 25      1     1       3
                       8
                       9
                       4
 26      1     5       3   3   3   3   3
                       6   6   6   6   6
                       9   9   9   9   9
                       8   8   8   8   8
 27      1     7       2   2   2   2   2   2   2
                       4   4   4   4   4   4   4
                       2   2   2   2   2   2   2
                       5   5   5   5   5   5   5
 28      1     6      10  10  10  10  10  10
                       5   5   5   5   5   5
                       9   9   9   9   9   9
                       1   1   1   1   1   1
 29      1     3       9   9   9
                       1   1   1
                       4   4   4
                       7   7   7
 30      1     5       3   5   5   5   5
                       4   7   7   7   7
                       1   2   2   2   2
                       1   2   2   2   2
 31      1     1       8
                       3
                       1
                       9
 32      1     0    
************************************************************************
RESOURCEAVAILABILITIES:
  R 1  R 2  R 3  R 4

  19  19  19  19  19  19  19  19  19  19  19  19  19  19  10  19  19  19  19  19  19  19  19  19  19  19  19  19  19  19  19  19  19  19  19  19  19  19  19  19  19  19  19  19  19  19  19  19  19  19  19  19  19  19  19  19  19  19  19  19  19  19  19  19  19  19  19  19  19  10  19  19  19  19  19  19  19  19  19  19  19  19  19  19  19  19  19  19  19  19  19  19  19  19  19  19  19  19  19  19  19  19  19  10  19  19  19  19  19  19  19  19  19  19  19  10  19  19  10  19  19  19  19  19  19  19  19  19  19  19  19  19  19  19  19  19  19  19  19  19  19  19  19  19  19  19  19  19  19  19  19  19  19  19  19  19  19  19  19

  17  17  17  17  17  17  17  17  17  17  17  17  17  17   9  17  17  17  17  17  17  17  17  17  17  17  17  17  17  17  17  17  17  17  17  17  17  17  17  17  17  17  17  17  17  17  17  17  17  17  17  17  17  17  17  17  17  17  17  17  17  17  17  17  17  17  17  17  17   9  17  17  17  17  17  17  17  17  17  17  17  17  17  17  17  17  17  17  17  17  17  17  17  17  17  17  17  17  17  17  17  17  17   9  17  17  17  17  17  17  17  17  17  17  17   9  17  17   9  17  17  17  17  17  17  17  17  17  17  17  17  17  17  17  17  17  17  17  17  17  17  17  17  17  17  17  17  17  17  17  17  17  17  17  17  17  17  17  17

  20  20  20  20  20  20  20  20  20  20  20  20  20  20  10  20  20  20  20  20  20  20  20  20  20  20  20  20  20  20  20  20  20  20  20  20  20  20  20  20  20  20  20  20  20  20  20  20  20  20  20  20  20  20  20  20  20  20  20  20  20  20  20  20  20  20  20  20  20  10  20  20  20  20  20  20  20  20  20  20  20  20  20  20  20  20  20  20  20  20  20  20  20  20  20  20  20  20  20  20  20  20  20  10  20  20  20  20  20  20  20  20  20  20  20  10  20  20  10  20  20  20  20  20  20  20  20  20  20  20  20  20  20  20  20  20  20  20  20  20  20  20  20  20  20  20  20  20  20  20  20  20  20  20  20  20  20  20  20

  19  19  19  19  19  19  19  19  19  19  19  19  19  19  10  19  19  19  19  19  19  19  19  19  19  19  19  19  19  19  19  19  19  19  19  19  19  19  19  19  19  19  19  19  19  19  19  19  19  19  19  19  19  19  19  19  19  19  19  19  19  19  19  19  19  19  19  19  19  10  19  19  19  19  19  19  19  19  19  19  19  19  19  19  19  19  19  19  19  19  19  19  19  19  19  19  19  19  19  19  19  19  19  10  19  19  19  19  19  19  19  19  19  19  19  10  19  19  10  19  19  19  19  19  19  19  19  19  19  19  19  19  19  19  19  19  19  19  19  19  19  19  19  19  19  19  19  19  19  19  19  19  19  19  19  19  19  19  19

************************************************************************
